\* Hillside LP *\
Minimize
OBJ: 2 x0_1 + 3 x0_2 + 2 x1_0 + 3 x1_2
Subject To
_C1: x0_1 + x1_0 = 1
_C2: x0_2 + x2_0 = 1
_C3: x1_2 + x2_1 = 1
_C4: x0_1 + x1_2 + x2_0 <= 2
_C5: x0_2 + x1_0 + x2_1 <= 2
_C6: x0_2 + x1_0 + x2_1 <= 2
_C7: x0_1 + x1_2 + x2_0 <= 2
_C8: x0_1 + x1_2 + x2_0 <= 2
_C9: x0_2 + x1_0 + x2_1 <= 2
Bounds
x0_1 <= 1
x0_2 <= 1
x1_0 <= 1
x1_2 <= 1
x2_0 <= 1
x2_1 <= 1
End
